Total weight: 1649.6869515472063
Route 1: 0 92 31 29 27 28 33 63 76 23 21 18 6 7 8 46 5 3 1 4 32 26 89 84 80 0 
Route 2: 0 82 74 75 59 17 14 47 16 15 11 30 34 50 81 90 19 49 20 99 10 97 77 9 13 24 48 25 58 0 
Route 3: 0 2 45 42 39 36 71 72 44 40 38 41 61 88 60 55 68 54 43 35 37 70 100 0 
Route 4: 0 69 98 79 73 78 12 53 0 
Route 5: 0 65 64 95 62 67 85 51 22 57 86 87 52 83 66 56 91 94 93 96 0 
